Traveling Salesman Problem/TSP_generados/Aleatorio1620391122_14.tsp
NAME: Aleatorio1620391122_14.tsp
COMMENT: Randomly generated scenario
TYPE: TSP
DIMENSION: 14
EDGE_WEIGHT_TYPE: ATT
NODE_COORD_SECTION
1 13.64 1.73
2 23.99 6.78
3 40.72 3.03
4 45.71 49.33
5 25.0 23.83
6 44.61 46.52
7 16.54 11.06
8 32.49 18.84
9 35.04 46.56
10 39.92 11.89
11 25.94 26.1
12 40.6 24.89
13 31.53 32.21
14 15.87 49.68
