Traveling Salesman Problem/TSP_generados/Aleatorio1620391122_14.opt.tour
NAME: Aleatorio1620391122_14.opt.tour
COMMENT: Optimal solution for Aleatorio1620391122_14 (172.59953181802635)
TYPE: TOUR
DIMENSION: 14
TOUR_SECTION
1 2 3 10 8 12 6 4 9 14 13 11 5 7
-1
EOF
